55 
300 
19.1 24.3 0 0
18.2 24 0 -11
12.6 24.9 20 -27
14.4 28 20 -17
16.9 28.1 -20 -90
20.7 28.2 20 -29
12.5 26.6 20 -22
21.8 27.3 20 -14
12.5 22.6 20 -28
22.5 17 -30 -83
19.9 15 -30 -139
14.9 15.1 30 -17
11.5 18.6 30 -10
12.4 29.8 30 -13
17.8 28.1 30 -18
9.1 29.8 40 -22
10 32.6 -40 -124
13.9 33.1 40 -24
19.95 10.3 -40 -103
15.2 8 40 -18
14.7 31.2 -50 -122
7.4 36.5 -50 -119
21 25.5 50 -28
18 25.3 10 -29
19.5 24.7 10 -14
21.4 21.8 -10 -135
16 21.4 10 -28
18.65 26.2 10 -23
17.9 28.9 -10 -75
14.3 19.9 20 -13
17 19 20 -18
10.8 21 20 -28
15.7 23.7 -10 -87
